r = [
0,23,18,37,9,23,62,28,40,10,12,0
];
p = [
0,7,17,27,19,6,16,4,21,12,8,0
];
e = [
0,5,3,12,16,1,14,6,16,18,5,0
];
d = [
0,91,87,110,84,95,136,96,112,72,78,138
];
d_bar = [
0,92,89,113,86,96,138,97,114,73,79,138
];
w = [
0,5,1.5,4,8,1,7,6,8,18,5,0
];
